examples/smoke.pasp.cnf
p cnf 19 30
c 6 0.25 0
c -6 0.75 0
c 11 0.25 0
c -11 0.75 0
c 13 0.25 0
c -13 0.75 0
c 9 0.2 0
c -9 0.8 0
c 4 0.2 0
c -4 0.8 0
c 5 0.3 0
c -5 0.7 0
c 10 0.4 0
c -10 0.6 0
c 1 0.333 0
c -1 0.667 0
c 2 0.333 0
c -2 0.667 0
c 3 0.334 0
c -3 0.6659999999999999 0
15 -6 -1 0
-15 6 0
-15 1 0
-7 15 0
7 -15 0
16 -4 -5 -7 0
-16 4 0
-16 5 0
-16 7 0
17 -9 -10 -12 0
-17 9 0
-17 10 0
-17 12 0
-8 16 17 0
8 -16 0
8 -17 0
18 -11 -2 0
-18 11 0
-18 2 0
-12 18 0
12 -18 0
19 -13 -3 0
-19 13 0
-19 3 0
-14 19 0
14 -19 0
3 2 1 0
-3 -2 0
-3 -1 0
-2 -1 0
c p auxiliary 15 16 17 18 19 0
